p edge 26 37
e 1 10
e 1 17
e 1 9
e 2 14
e 2 11
e 2 20
e 3 21
e 3 15
e 3 13
e 3 8
e 3 22
e 4 12
e 4 5
e 4 9
e 6 25
e 7 9
e 7 25
e 7 10
e 8 15
e 8 22
e 8 9
e 9 19
e 9 16
e 9 23
e 10 25
e 10 17
e 11 20
e 11 14
e 12 26
e 12 16
e 14 17
e 15 22
e 16 23
e 18 26
e 21 24
e 21 26
e 24 26
